10
0 31 71 96 17 26 49 31 88 26 
40 0 87 1 27 97 12 81 72 30 
74 38 0 97 59 47 56 90 41 98 
49 83 66 0 19 25 16 48 80 18 
61 66 63 65 0 58 56 4 26 35 
91 14 89 8 56 0 13 29 23 64 
43 17 34 32 40 21 0 42 85 38 
42 12 46 60 5 67 69 0 85 25 
42 44 28 75 100 89 79 21 0 45 
88 45 18 55 67 73 65 29 54 0 
